VACCINE = Vaccine(1..2);
m = 24;
age = [AGED, AGED, ADULT, YOUTH, ADULT, AGED, AGED, SENIOR, BABY, SENIOR, BABY, ANCIENT, SENIOR, ADULT, AGED, CHILD, YOUTH, YOUTH, BABY, CHILD, ANCIENT, YOUTH, SENIOR, CHILD];
gender = [OTHER, OTHER, FEMALE, FEMALE, OTHER, OTHER, MALE, FEMALE, OTHER, FEMALE, OTHER, OTHER, FEMALE, FEMALE, OTHER, OTHER, MALE, MALE, OTHER, OTHER, FEMALE, FEMALE, FEMALE, MALE];
health = [COMPROMISED, GOOD, COMPROMISED, GOOD, POOR, GOOD, POOR, GOOD, COMPROMISED, COMPROMISED, POOR, POOR, POOR, GOOD, COMPROMISED, GOOD, GOOD, COMPROMISED, GOOD, POOR, POOR, COMPROMISED, GOOD, COMPROMISED];
exposure = [AVERAGE, HIGH, AVERAGE, LOW, EXTREME, EXTREME, EXTREME, AVERAGE, LOW, LOW, HIGH, LOW, EXTREME, EXTREME, AVERAGE, LOW, AVERAGE, HIGH, AVERAGE, LOW, EXTREME, AVERAGE, EXTREME, AVERAGE];
size = [8, 6, 9, 6, 7, 7, 5, 9, 7, 8, 6, 8, 4, 6, 6, 4, 4, 9, 6, 6, 5, 6, 4, 5];
minsize = 4;
age_group_min = [1, 0, 1, 0, 0, 0, 0];
age_group_max = [23, 18, 11, 15, 12, 14, 23];
max_people_diff = 68;
max_share_vaccines = 2;
health_information = {1, 13, 21};
exposure_information = {6, 7, 18, 23};